array [1..2] of int: X_INTRODUCED_1_ = [1,-1];
var {113,121}: Vg11:: output_var;
var {112,122}: Vg12:: output_var;
var {112,122}: Vg13:: output_var;
var {113,121}: Vg14:: output_var;
var {111,311}: Vg21:: output_var;
var {111,311}: Vg23:: output_var;
var 11..12: X_INTRODUCED_5_ ::var_is_introduced :: is_defined_var;
var -10..10: X_INTRODUCED_6_ ::var_is_introduced ;
var 11..12: X_INTRODUCED_7_ ::var_is_introduced :: is_defined_var;
var -10..10: X_INTRODUCED_8_ ::var_is_introduced ;
var -10..10: X_INTRODUCED_11_ ::var_is_introduced ;
var -10..10: X_INTRODUCED_12_ ::var_is_introduced ;
var bool: X_INTRODUCED_13_ ::var_is_introduced :: is_defined_var;
var 11..12: X_INTRODUCED_15_ ::var_is_introduced :: is_defined_var;
var -10..10: X_INTRODUCED_16_ ::var_is_introduced ;
var bool: X_INTRODUCED_17_ ::var_is_introduced :: is_defined_var;
var -10..10: X_INTRODUCED_18_ ::var_is_introduced ;
var bool: X_INTRODUCED_20_ ::var_is_introduced :: is_defined_var;
var 11..12: X_INTRODUCED_22_ ::var_is_introduced :: is_defined_var;
var -10..10: X_INTRODUCED_23_ ::var_is_introduced ;
var bool: X_INTRODUCED_26_ ::var_is_introduced :: is_defined_var;
var bool: X_INTRODUCED_27_ ::var_is_introduced :: is_defined_var;
var bool: X_INTRODUCED_28_ ::var_is_introduced :: is_defined_var;
var -10..10: X_INTRODUCED_29_ ::var_is_introduced ;
var bool: X_INTRODUCED_31_ ::var_is_introduced :: is_defined_var;
var bool: X_INTRODUCED_34_ ::var_is_introduced :: is_defined_var;
var bool: X_INTRODUCED_35_ ::var_is_introduced :: is_defined_var;
var bool: X_INTRODUCED_36_ ::var_is_introduced :: is_defined_var;
var bool: X_INTRODUCED_37_ ::var_is_introduced :: is_defined_var;
var bool: X_INTRODUCED_39_ ::var_is_introduced :: is_defined_var;
var bool: X_INTRODUCED_40_ ::var_is_introduced :: is_defined_var;
var bool: X_INTRODUCED_42_ ::var_is_introduced :: is_defined_var;
var bool: X_INTRODUCED_45_ ::var_is_introduced :: is_defined_var;
var bool: X_INTRODUCED_46_ ::var_is_introduced :: is_defined_var;
var bool: X_INTRODUCED_48_ ::var_is_introduced :: is_defined_var;
var bool: X_INTRODUCED_49_ ::var_is_introduced :: is_defined_var;
var {1,3}: X_INTRODUCED_51_ ::var_is_introduced :: is_defined_var;
var bool: X_INTRODUCED_54_ ::var_is_introduced :: is_defined_var;
var 11..31: X_INTRODUCED_55_ ::var_is_introduced :: is_defined_var;
var -10..10: X_INTRODUCED_56_ ::var_is_introduced ;
var bool: X_INTRODUCED_57_ ::var_is_introduced :: is_defined_var;
var -10..10: X_INTRODUCED_58_ ::var_is_introduced ;
var 1..3: X_INTRODUCED_60_ ::var_is_introduced :: is_defined_var;
var bool: X_INTRODUCED_62_ ::var_is_introduced :: is_defined_var;
var 11..31: X_INTRODUCED_63_ ::var_is_introduced :: is_defined_var;
var -10..10: X_INTRODUCED_64_ ::var_is_introduced ;
var bool: X_INTRODUCED_65_ ::var_is_introduced :: is_defined_var;
var -10..10: X_INTRODUCED_66_ ::var_is_introduced ;
var bool: X_INTRODUCED_68_ ::var_is_introduced :: is_defined_var;
var bool: X_INTRODUCED_70_ ::var_is_introduced :: is_defined_var;
var bool: X_INTRODUCED_72_ ::var_is_introduced :: is_defined_var;
var bool: X_INTRODUCED_73_ ::var_is_introduced :: is_defined_var;
constraint int_lin_ne(X_INTRODUCED_1_,[Vg11,Vg12],0);
constraint int_lin_ne(X_INTRODUCED_1_,[Vg11,Vg13],0);
constraint int_lin_ne(X_INTRODUCED_1_,[Vg11,Vg14],0);
constraint int_lin_ne(X_INTRODUCED_1_,[Vg11,Vg21],0);
constraint int_lin_ne(X_INTRODUCED_1_,[Vg11,Vg23],0);
constraint int_lin_ne(X_INTRODUCED_1_,[Vg12,Vg13],0);
constraint int_lin_ne(X_INTRODUCED_1_,[Vg12,Vg14],0);
constraint int_lin_ne(X_INTRODUCED_1_,[Vg12,Vg21],0);
constraint int_lin_ne(X_INTRODUCED_1_,[Vg12,Vg23],0);
constraint int_lin_ne(X_INTRODUCED_1_,[Vg13,Vg14],0);
constraint int_lin_ne(X_INTRODUCED_1_,[Vg13,Vg21],0);
constraint int_lin_ne(X_INTRODUCED_1_,[Vg13,Vg23],0);
constraint int_lin_ne(X_INTRODUCED_1_,[Vg14,Vg21],0);
constraint int_lin_ne(X_INTRODUCED_1_,[Vg14,Vg23],0);
constraint int_lin_ne(X_INTRODUCED_1_,[Vg21,Vg23],0);
constraint int_div(Vg12,100,1);
constraint int_div(Vg11,100,1);
constraint int_div(Vg12,10,X_INTRODUCED_5_):: defines_var(X_INTRODUCED_5_);
constraint int_mod(X_INTRODUCED_5_,10,X_INTRODUCED_6_);
constraint int_div(Vg11,10,X_INTRODUCED_7_):: defines_var(X_INTRODUCED_7_);
constraint int_mod(X_INTRODUCED_7_,10,X_INTRODUCED_8_);
constraint int_mod(Vg12,10,X_INTRODUCED_11_);
constraint int_mod(Vg11,10,X_INTRODUCED_12_);
constraint int_div(Vg13,100,1);
constraint int_div(Vg13,10,X_INTRODUCED_15_):: defines_var(X_INTRODUCED_15_);
constraint int_mod(X_INTRODUCED_15_,10,X_INTRODUCED_16_);
constraint int_mod(Vg13,10,X_INTRODUCED_18_);
constraint int_div(Vg14,100,1);
constraint int_div(Vg14,10,X_INTRODUCED_22_):: defines_var(X_INTRODUCED_22_);
constraint int_mod(X_INTRODUCED_22_,10,X_INTRODUCED_23_);
constraint int_lin_eq_reif(X_INTRODUCED_1_,[X_INTRODUCED_23_,X_INTRODUCED_8_],-2,false);
constraint int_mod(Vg14,10,X_INTRODUCED_29_);
constraint array_bool_and([X_INTRODUCED_31_,X_INTRODUCED_28_,X_INTRODUCED_27_,X_INTRODUCED_26_,X_INTRODUCED_20_,X_INTRODUCED_17_],false);
constraint array_bool_and([X_INTRODUCED_42_,X_INTRODUCED_40_,X_INTRODUCED_39_,X_INTRODUCED_35_,X_INTRODUCED_34_,X_INTRODUCED_26_],false);
constraint array_bool_and([X_INTRODUCED_46_,X_INTRODUCED_45_,X_INTRODUCED_40_,X_INTRODUCED_37_,X_INTRODUCED_34_,X_INTRODUCED_13_],false);
constraint array_bool_and([X_INTRODUCED_49_,X_INTRODUCED_45_,X_INTRODUCED_37_,X_INTRODUCED_34_,X_INTRODUCED_20_,X_INTRODUCED_13_],false);
constraint array_bool_or([X_INTRODUCED_48_,X_INTRODUCED_36_],true);
constraint int_div(Vg21,100,X_INTRODUCED_51_):: defines_var(X_INTRODUCED_51_);
constraint int_eq_reif(X_INTRODUCED_51_,2,false);
constraint int_div(Vg21,10,X_INTRODUCED_55_):: defines_var(X_INTRODUCED_55_);
constraint int_mod(X_INTRODUCED_55_,10,X_INTRODUCED_56_);
constraint int_mod(Vg21,10,X_INTRODUCED_58_);
constraint int_eq_reif(X_INTRODUCED_58_,1,true);
constraint int_div(Vg23,100,X_INTRODUCED_60_):: defines_var(X_INTRODUCED_60_);
constraint int_div(Vg23,10,X_INTRODUCED_63_):: defines_var(X_INTRODUCED_63_);
constraint int_mod(X_INTRODUCED_63_,10,X_INTRODUCED_64_);
constraint int_mod(Vg23,10,X_INTRODUCED_66_);
constraint int_eq_reif(X_INTRODUCED_66_,X_INTRODUCED_58_,true);
constraint array_bool_or([X_INTRODUCED_73_,X_INTRODUCED_68_],true);
constraint int_eq_reif(X_INTRODUCED_11_,X_INTRODUCED_12_,X_INTRODUCED_13_):: defines_var(X_INTRODUCED_13_);
constraint int_lin_eq_reif(X_INTRODUCED_1_,[X_INTRODUCED_16_,X_INTRODUCED_8_],-1,X_INTRODUCED_17_):: defines_var(X_INTRODUCED_17_);
constraint int_lin_eq_reif(X_INTRODUCED_1_,[X_INTRODUCED_18_,X_INTRODUCED_12_],-1,X_INTRODUCED_20_):: defines_var(X_INTRODUCED_20_);
constraint int_eq_reif(X_INTRODUCED_6_,X_INTRODUCED_8_,X_INTRODUCED_26_):: defines_var(X_INTRODUCED_26_);
constraint int_lin_eq_reif(X_INTRODUCED_1_,[X_INTRODUCED_11_,X_INTRODUCED_12_],-1,X_INTRODUCED_27_):: defines_var(X_INTRODUCED_27_);
constraint int_lin_eq_reif(X_INTRODUCED_1_,[X_INTRODUCED_23_,X_INTRODUCED_8_],-1,X_INTRODUCED_28_):: defines_var(X_INTRODUCED_28_);
constraint int_lin_eq_reif(X_INTRODUCED_1_,[X_INTRODUCED_29_,X_INTRODUCED_12_],-2,X_INTRODUCED_31_):: defines_var(X_INTRODUCED_31_);
constraint int_lin_eq_reif(X_INTRODUCED_1_,[X_INTRODUCED_16_,X_INTRODUCED_8_],1,X_INTRODUCED_34_):: defines_var(X_INTRODUCED_34_);
constraint int_lin_eq_reif(X_INTRODUCED_1_,[X_INTRODUCED_23_,X_INTRODUCED_8_],1,X_INTRODUCED_35_):: defines_var(X_INTRODUCED_35_);
constraint array_bool_and([X_INTRODUCED_35_,X_INTRODUCED_34_,X_INTRODUCED_31_,X_INTRODUCED_27_,X_INTRODUCED_26_,X_INTRODUCED_20_],X_INTRODUCED_36_):: defines_var(X_INTRODUCED_36_);
constraint int_lin_eq_reif(X_INTRODUCED_1_,[X_INTRODUCED_6_,X_INTRODUCED_8_],1,X_INTRODUCED_37_):: defines_var(X_INTRODUCED_37_);
constraint int_lin_eq_reif(X_INTRODUCED_1_,[X_INTRODUCED_11_,X_INTRODUCED_12_],1,X_INTRODUCED_39_):: defines_var(X_INTRODUCED_39_);
constraint int_lin_eq_reif(X_INTRODUCED_1_,[X_INTRODUCED_18_,X_INTRODUCED_12_],1,X_INTRODUCED_40_):: defines_var(X_INTRODUCED_40_);
constraint int_lin_eq_reif(X_INTRODUCED_1_,[X_INTRODUCED_29_,X_INTRODUCED_12_],2,X_INTRODUCED_42_):: defines_var(X_INTRODUCED_42_);
constraint int_lin_eq_reif(X_INTRODUCED_1_,[X_INTRODUCED_23_,X_INTRODUCED_8_],2,X_INTRODUCED_45_):: defines_var(X_INTRODUCED_45_);
constraint int_lin_eq_reif(X_INTRODUCED_1_,[X_INTRODUCED_29_,X_INTRODUCED_12_],1,X_INTRODUCED_46_):: defines_var(X_INTRODUCED_46_);
constraint array_bool_and([X_INTRODUCED_42_,X_INTRODUCED_40_,X_INTRODUCED_39_,X_INTRODUCED_28_,X_INTRODUCED_26_,X_INTRODUCED_17_],X_INTRODUCED_48_):: defines_var(X_INTRODUCED_48_);
constraint int_lin_eq_reif(X_INTRODUCED_1_,[X_INTRODUCED_29_,X_INTRODUCED_12_],-1,X_INTRODUCED_49_):: defines_var(X_INTRODUCED_49_);
constraint int_eq_reif(X_INTRODUCED_51_,3,X_INTRODUCED_54_):: defines_var(X_INTRODUCED_54_);
constraint int_eq_reif(X_INTRODUCED_56_,1,X_INTRODUCED_57_):: defines_var(X_INTRODUCED_57_);
constraint int_lin_eq_reif(X_INTRODUCED_1_,[X_INTRODUCED_60_,X_INTRODUCED_51_],-2,X_INTRODUCED_62_):: defines_var(X_INTRODUCED_62_);
constraint int_eq_reif(X_INTRODUCED_64_,X_INTRODUCED_56_,X_INTRODUCED_65_):: defines_var(X_INTRODUCED_65_);
constraint array_bool_and([X_INTRODUCED_65_,X_INTRODUCED_62_,X_INTRODUCED_57_,X_INTRODUCED_54_],X_INTRODUCED_68_):: defines_var(X_INTRODUCED_68_);
constraint int_eq_reif(X_INTRODUCED_51_,1,X_INTRODUCED_70_):: defines_var(X_INTRODUCED_70_);
constraint int_lin_eq_reif(X_INTRODUCED_1_,[X_INTRODUCED_60_,X_INTRODUCED_51_],2,X_INTRODUCED_72_):: defines_var(X_INTRODUCED_72_);
constraint array_bool_and([X_INTRODUCED_72_,X_INTRODUCED_70_,X_INTRODUCED_65_,X_INTRODUCED_57_],X_INTRODUCED_73_):: defines_var(X_INTRODUCED_73_);
solve  satisfy;
